c Small modular SAT example for compile/inspect/query smoke tests
p cnf 12 14
1 2 -3 0
-1 3 4 0
2 -4 5 0
-2 4 -5 0
4 5 6 0
-4 -6 7 0
6 -7 8 0
-6 7 -8 0
7 8 9 0
-8 9 10 0
8 -9 -10 0
9 10 11 0
-10 11 12 0
10 -11 -12 0
